
Log started (V11.0.0) Wed Apr 16 16:54:44 2008

Tried aggregator 1 time.
Reduced MIP has 120 rows, 2001 columns, and 4020 nonzeros.
Presolve time =    0.02 sec.
Clique table members: 100.
MIP emphasis: balance optimality and feasibility.
MIP search method: dynamic search.
Parallel mode: none, using 1 thread.
Root relaxation solution time =    0.05 sec.

        Nodes                                         Cuts/
   Node  Left     Objective  IInf  Best Integer     Best Node    ItCnt     Gap

*     0+    0                        15176.0000      528.7415      274   96.52%
*     0+    0                          565.0000      528.7415      274    6.42%
      0     0      529.1604    39      565.0000      Fract: 7      294    6.34%
      0     0      529.7678    52      565.0000       Cuts: 7      319    6.24%
      0     0      530.1109    60      565.0000       Cuts: 8      345    6.18%
      0     0      530.3626    64      565.0000       Cuts: 6      373    6.13%
      0     0      530.6173    67      565.0000       Cuts: 7      406    6.09%
      0     0      531.3484    65      565.0000       Cuts: 7      443    5.96%
      0     0      531.5164    76      565.0000       Cuts: 7      463    5.93%
      0     0      531.6959    71      565.0000       Cuts: 5      489    5.89%
      0     0      531.7462    78      565.0000       Cuts: 5      500    5.89%
      0     0      531.7478    81      565.0000     Covers: 1      502    5.89%
*     0+    0                          555.0000      531.7478      502    4.19%
*     0+    0                          550.0000      531.7478      502    3.32%
*     0+    0                          545.0000      531.7478      502    2.43%
      0     2      532.0000    79      545.0000      531.7478      502    2.43%
    100    90      537.0000    32      545.0000      533.0000     2468    2.20%
    200   164      542.0000    31      545.0000      533.0000     5337    2.20%
    300   214      535.0000    45      545.0000      533.0000     7656    2.20%
    400   305      538.0000    33      545.0000      533.0000     9146    2.20%
    500   353      543.0000    38      545.0000      538.0000    14071    1.28%
    600   340      541.0000    35      545.0000      538.0000    20743    1.28%
    700   341      542.0000    46      545.0000      538.0000    24421    1.28%
    800   313      541.0000    37      545.0000      538.0000    27436    1.28%
    900   288      544.0000    42      545.0000      538.0000    30432    1.28%
*   951+   30                          541.0000      538.0000    32176    0.55%
   1000    67      538.7096    72      541.0000      538.0000    35073    0.55%
Elapsed time =  15.22 sec. (tree size =  0.21 MB, solutions = 6)
   1100   138      540.0000    59      541.0000      538.0000    39202    0.55%
   1200   212      540.0000    42      541.0000      538.0000    44118    0.55%
   1300   273      539.3333    62      541.0000      538.0000    50765    0.55%
   1400   347      538.0000    58      541.0000      538.0000    57627    0.55%
   1500   403      539.0000    75      541.0000      538.0000    68330    0.55%
   1600   470      539.0000    82      541.0000      538.0000    80217    0.55%
   1700   535      540.0000    40      541.0000      538.0000    89127    0.55%
   1800   609      539.2000    74      541.0000      538.0000    96003    0.55%
   1900   672        cutoff            541.0000      538.0000   104604    0.55%
   2000   742      540.0000    42      541.0000      538.0000   116134    0.55%
Elapsed time =  33.39 sec. (tree size =  3.32 MB, solutions = 6)
   2100   802      540.0000    46      541.0000      538.0000   130632    0.55%
   2200   862      539.0000    88      541.0000      538.0000   141152    0.55%
   2300   929      540.0000    59      541.0000      538.0000   159932    0.55%
   2400  1001    infeasible            541.0000      538.0000   170595    0.55%
   2500  1060      540.0000    54      541.0000      538.0000   189857    0.55%
   2600  1124      540.0000    41      541.0000      538.0000   202614    0.55%
   2700  1193      540.0000    50      541.0000      538.0000   216527    0.55%
   2800  1255    infeasible            541.0000      538.0000   230622    0.55%
   2900  1316      540.0000    59      541.0000      538.0000   247718    0.55%
   3000  1378      540.0000    33      541.0000      538.0000   264906    0.55%
Elapsed time =  70.86 sec. (tree size =  7.82 MB, solutions = 6)
   3100  1457      540.0000    63      541.0000      538.0000   277847    0.55%
   3200  1512      540.0000    75      541.0000      538.0000   292824    0.55%
   3300  1587      539.0000    94      541.0000      538.0000   304041    0.55%
   3400  1659        cutoff            541.0000      538.0000   312780    0.55%
   3500  1712      538.0800   112      541.0000      538.0000   333791    0.55%
*  3556   268      integral     0      540.0000      538.0000   338797    0.37%
   3600   252      538.9119   118      540.0000      538.0000   358261    0.37%
   3700   203      538.3059   101      540.0000      538.0000   405838    0.37%
   3800   155      538.0000    91      540.0000      538.0000   447020    0.37%
   3900    80        cutoff            540.0000      539.0000   494910    0.19%

Cover cuts applied:  578
Mixed integer rounding cuts applied:  22

Solution pool: 7 solutions saved.

MIP - Integer optimal solution:  Objective = 5.4000000000e+002
Solution time =  152.59 sec.  Iterations = 532204  Nodes = 3989


Incumbent solution
Variable Name           Solution Value
Cmax                        540.000000
X_1_20                        1.000000
X_2_17                        1.000000
X_3_15                        1.000000
X_4_5                         1.000000
X_5_6                         1.000000
X_6_17                        1.000000
X_7_16                        1.000000
X_8_1                         1.000000
X_9_3                         1.000000
X_10_14                       1.000000
X_11_15                       1.000000
X_12_5                        1.000000
X_13_20                       1.000000
X_14_7                        1.000000
X_15_2                        1.000000
X_16_4                        1.000000
X_17_10                       1.000000
X_18_2                        1.000000
X_19_19                       1.000000
X_20_2                        1.000000
X_21_18                       1.000000
X_22_17                       1.000000
X_23_20                       1.000000
X_24_9                        1.000000
X_25_14                       1.000000
X_26_8                        1.000000
X_27_7                        1.000000
X_28_12                       1.000000
X_29_2                        1.000000
X_30_12                       1.000000
X_31_3                        1.000000
X_32_16                       1.000000
X_33_18                       1.000000
X_34_13                       1.000000
X_35_9                        1.000000
X_36_4                        1.000000
X_37_11                       1.000000
X_38_19                       1.000000
X_39_16                       1.000000
X_40_20                       1.000000
X_41_15                       1.000000
X_42_14                       1.000000
X_43_12                       1.000000
X_44_18                       1.000000
X_45_5                        1.000000
X_46_5                        1.000000
X_47_19                       1.000000
X_48_1                        1.000000
X_49_6                        1.000000
X_50_13                       1.000000
X_51_1                        1.000000
X_52_3                        1.000000
X_53_8                        1.000000
X_54_14                       1.000000
X_55_1                        1.000000
X_56_13                       1.000000
X_57_3                        1.000000
X_58_8                        1.000000
X_59_11                       1.000000
X_60_11                       1.000000
X_61_8                        1.000000
X_62_18                       1.000000
X_63_6                        1.000000
X_64_11                       1.000000
X_65_12                       1.000000
X_66_15                       1.000000
X_67_19                       1.000000
X_68_10                       1.000000
X_69_9                        1.000000
X_70_20                       1.000000
X_71_13                       1.000000
X_72_7                        1.000000
X_73_13                       1.000000
X_74_16                       1.000000
X_75_7                        1.000000
X_76_10                       1.000000
X_77_7                        1.000000
X_78_9                        1.000000
X_79_2                        1.000000
X_80_10                       1.000000
X_81_6                        1.000000
X_82_11                       1.000000
X_83_4                        1.000000
X_84_12                       1.000000
X_85_8                        1.000000
X_86_6                        1.000000
X_87_19                       1.000000
X_88_4                        1.000000
X_89_9                        1.000000
X_90_18                       1.000000
X_91_16                       1.000000
X_92_1                        1.000000
X_93_3                        1.000000
X_94_15                       1.000000
X_95_17                       1.000000
X_96_4                        1.000000
X_97_5                        1.000000
X_98_14                       1.000000
X_99_10                       1.000000
X_100_17                      1.000000
All other variables in the range 1-2001 are 0.
